sat
((prim_1_1 1))
((prim_1_2 4))
((prim_1_3 30))
((prim_1_4 30))
((prim_1_5 28))
((prim_1_6 8))
((prim_1_7 57))
((prim_1_8 56))
((prim_1_9 48))
((prim_1_10 35))
((prim_1_11 21))
((prim_1_12 27))
((prim_1_13 22))
((x_1_1 5))
((x_1_2 5))
((x_1_3 6))
((x_1_4 8))
((x_1_5 10))
((x_1_6 11))
((x_1_7 11))
((x_1_8 11))
((x_1_9 10))
((x_1_10 8))
((x_1_11 6))
((x_1_12 5))
((x_1_13 5))
((x_1_14 5))
((y_1_1 0))
((y_1_2 0))
((y_1_3 0))
((y_1_4 0))
((y_1_5 0))
((y_1_6 0))
((y_1_7 1))
((y_1_8 3))
((y_1_9 5))
((y_1_10 6))
((y_1_11 5))
((y_1_12 3))
((y_1_13 1))
((y_1_14 0))
((vel_i_1_1 0))
((vel_i_1_2 0))
((vel_i_1_3 3))
((vel_i_1_4 3))
((vel_i_1_5 3))
((vel_i_1_6 0))
((vel_i_1_7 7))
((vel_i_1_8 7))
((vel_i_1_9 6))
((vel_i_1_10 4))
((vel_i_1_11 2))
((vel_i_1_12 8))
((vel_i_1_13 8))
((vel_f_1_1 0))
((vel_f_1_2 3))
((vel_f_1_3 3))
((vel_f_1_4 3))
((vel_f_1_5 0))
((vel_f_1_6 7))
((vel_f_1_7 7))
((vel_f_1_8 6))
((vel_f_1_9 4))
((vel_f_1_10 2))
((vel_f_1_11 8))
((vel_f_1_12 8))
((vel_f_1_13 0))
((x_f_1_1 0))
((x_f_1_2 1))
((x_f_1_3 2))
((x_f_1_4 2))
((x_f_1_5 1))
((x_f_1_6 0))
((x_f_1_7 0))
((x_f_1_8 (- 1)))
((x_f_1_9 (- 2)))
((x_f_1_10 (- 2)))
((x_f_1_11 (- 1)))
((x_f_1_12 0))
((x_f_1_13 0))
((y_f_1_1 0))
((y_f_1_2 0))
((y_f_1_3 0))
((y_f_1_4 0))
((y_f_1_5 0))
((y_f_1_6 1))
((y_f_1_7 2))
((y_f_1_8 2))
((y_f_1_9 1))
((y_f_1_10 (- 1)))
((y_f_1_11 (- 2)))
((y_f_1_12 (- 2)))
((y_f_1_13 (- 1)))
((cost_1_1 (/ 4.0 5.0)))
((cost_1_2 (/ 311198016.0 244140625.0)))
((cost_1_3 (/ 4.0 5.0)))
((cost_1_4 (/ 4.0 5.0)))
((cost_1_5 (/ 311198016.0 244140625.0)))
((cost_1_6 (/ 311198016.0 244140625.0)))
((cost_1_7 (/ 4.0 5.0)))
((cost_1_8 (/ 357235104.0 244140625.0)))
((cost_1_9 (/ 357235104.0 244140625.0)))
((cost_1_10 (/ 357235104.0 244140625.0)))
((cost_1_11 (/ 357235104.0 244140625.0)))
((cost_1_12 (/ 4.0 5.0)))
((cost_1_13 (/ 311198016.0 244140625.0)))
((total_cost (/ 730058996.0 48828125.0)))
((charge_1_1 20.0))
((charge_1_2 (/ 96.0 5.0)))
((charge_1_3 (/ 4376301984.0 244140625.0)))
((charge_1_4 (/ 4180989484.0 244140625.0)))
((charge_1_5 (/ 3985676984.0 244140625.0)))
((charge_1_6 (/ 3674478968.0 244140625.0)))
((charge_1_7 (/ 3363280952.0 244140625.0)))
((charge_1_8 (/ 3167968452.0 244140625.0)))
((charge_1_9 (/ 2810733348.0 244140625.0)))
((charge_1_10 (/ 2453498244.0 244140625.0)))
((charge_1_11 (/ 419252628.0 48828125.0)))
((charge_1_12 (/ 1739028036.0 244140625.0)))
((charge_1_13 (/ 1543715536.0 244140625.0)))
((charge_1_14 (/ 246503504.0 48828125.0)))
((l_1 false))
((l_2 true))
((l_3 false))
((l_4 false))
((l_5 false))
((l_6 false))
((l_7 false))
((l_8 false))
((l_9 false))
((l_10 false))
((l_11 false))
((l_12 false))
((l_13 false))
